unsat
(forall ((A (_ BitVec 20))
         (B (_ BitVec 20))
         (C (_ BitVec 1))
         (D (_ BitVec 1))
         (E (_ BitVec 20))
         (F (_ BitVec 20))
         (G (_ BitVec 20))
         (H (_ BitVec 20))
         (I (_ BitVec 20))
         (J (_ BitVec 20))
         (K (_ BitVec 20))
         (L (_ BitVec 38))
         (M (_ BitVec 38))
         (N (_ BitVec 20))
         (O (_ BitVec 20))
         (P (_ BitVec 20))
         (Q (_ BitVec 20))
         (R (_ BitVec 20))
         (S (_ BitVec 1))
         (T (_ BitVec 1))
         (U (_ BitVec 18))
         (V (_ BitVec 20))
         (W (_ BitVec 20))
         (X (_ BitVec 20))
         (Y (_ BitVec 1))
         (Z (_ BitVec 20))
         (A1 (_ BitVec 20))
         (B1 (_ BitVec 20))
         (C1 (_ BitVec 20))
         (D1 (_ BitVec 20))
         (E1 (_ BitVec 18))
         (F1 (_ BitVec 20))
         (G1 (_ BitVec 20))
         (H1 (_ BitVec 38))
         (I1 (_ BitVec 20))
         (J1 (_ BitVec 20))
         (K1 (_ BitVec 20))
         (L1 (_ BitVec 38))
         (M1 (_ BitVec 20))
         (N1 (_ BitVec 1))
         (O1 (_ BitVec 20))
         (P1 (_ BitVec 20))
         (Q1 (_ BitVec 20))
         (R1 (_ BitVec 22))
         (S1 (_ BitVec 20))
         (T1 (_ BitVec 38))
         (U1 (_ BitVec 20))
         (V1 (_ BitVec 20))
         (W1 (_ BitVec 1))
         (X1 (_ BitVec 38))
         (Y1 (_ BitVec 20))
         (Z1 (_ BitVec 20))
         (A2 (_ BitVec 1))
         (B2 (_ BitVec 1))
         (C2 (_ BitVec 20))
         (D2 (_ BitVec 20))
         (E2 (_ BitVec 20))
         (F2 (_ BitVec 20))
         (G2 (_ BitVec 18))
         (H2 (_ BitVec 20))
         (I2 (_ BitVec 20))
         (J2 (_ BitVec 22))
         (K2 (_ BitVec 20))
         (L2 (_ BitVec 20))
         (M2 (_ BitVec 20))
         (N2 (_ BitVec 20))
         (O2 (_ BitVec 20))
         (P2 (_ BitVec 38))
         (Q2 (_ BitVec 22))
         (R2 (_ BitVec 20))
         (S2 (_ BitVec 1))
         (T2 (_ BitVec 14))
         (U2 (_ BitVec 38))
         (V2 (_ BitVec 20))
         (W2 (_ BitVec 16))
         (X2 (_ BitVec 14))
         (Y2 (_ BitVec 22))
         (Z2 (_ BitVec 14))
         (A3 (_ BitVec 22))
         (B3 (_ BitVec 14))
         (C3 (_ BitVec 14))
         (D3 (_ BitVec 22))
         (E3 (_ BitVec 14))
         (F3 (_ BitVec 22))
         (G3 (_ BitVec 22))
         (H3 (_ BitVec 38))
         (I3 (_ BitVec 30))
         (J3 (_ BitVec 30))
         (K3 (_ BitVec 20))
         (L3 (_ BitVec 20))
         (M3 (_ BitVec 20))
         (N3 (_ BitVec 20))
         (O3 (_ BitVec 20))
         (P3 (_ BitVec 20))
         (Q3 (_ BitVec 20))
         (R3 (_ BitVec 16))
         (S3 (_ BitVec 14))
         (T3 (_ BitVec 30))
         (U3 (_ BitVec 1))
         (V3 (_ BitVec 38))
         (W3 (_ BitVec 30)))
  (! (let ((a!1 (= ((_ extract 25 2)
                     (bvadd ((_ extract 37 12) T1) (concat #x0 F3)))
                   #x000000))
           (a!2 (= ((_ extract 27 4)
                     (bvadd (concat #b000000 D3) ((_ extract 37 10) M)))
                   #x000000))
           (a!3 (= ((_ extract 3 2)
                     (bvadd (concat #b000000 D3) ((_ extract 37 10) M)))
                   #b00))
           (a!4 (= ((_ extract 5 4)
                     (bvadd ((_ extract 37 8) L1) (concat #x00 Q2)))
                   #b00))
           (a!5 (= ((_ extract 3 2)
                     (bvadd ((_ extract 37 8) L1) (concat #x00 Q2)))
                   #b00))
           (a!6 (= ((_ extract 29 6)
                     (bvadd ((_ extract 37 8) L1) (concat #x00 Q2)))
                   #x000000))
           (a!7 (= ((_ extract 31 8)
                     (bvadd ((_ extract 37 6) P2) (concat #b0000000000 A3)))
                   #x000000))
           (a!8 (or ((_ bit2bool 0) U)
                    ((_ bit2bool 1) U)
                    ((_ bit2bool 2) U)
                    (not (= ((_ extract 2 2) G2) #b1))
                    (= ((_ extract 2 2) E1) #b1)))
           (a!9 (= ((_ extract 7 6)
                     (bvadd ((_ extract 37 6) P2) (concat #b0000000000 A3)))
                   #b00))
           (a!10 (or ((_ bit2bool 0) W)
                     ((_ bit2bool 1) W)
                     ((_ bit2bool 1) F2)
                     (not ((_ bit2bool 2) F2))
                     (not (= ((_ extract 1 1) C1) #b1))))
           (a!11 (or ((_ bit2bool 0) W)
                     ((_ bit2bool 0) F2)
                     (not (= ((_ extract 0 0) C1) #b1))))
           (a!12 (= ((_ extract 3 2)
                      (bvadd ((_ extract 37 6) P2) (concat #b0000000000 A3)))
                    #b00))
           (a!13 (= ((_ extract 5 4)
                      (bvadd ((_ extract 37 6) P2) (concat #b0000000000 A3)))
                    #b00))
           (a!14 (= ((_ extract 7 6)
                      (bvadd ((_ extract 37 4) X1) (concat #x000 Y2)))
                    #b00))
           (a!15 (= ((_ extract 3 2)
                      (bvadd ((_ extract 37 4) X1) (concat #x000 Y2)))
                    #b00))
           (a!16 (= ((_ extract 5 4)
                      (bvadd ((_ extract 37 4) X1) (concat #x000 Y2)))
                    #b00))
           (a!17 (= ((_ extract 9 8)
                      (bvadd ((_ extract 37 4) X1) (concat #x000 Y2)))
                    #b00))
           (a!18 (= ((_ extract 33 10)
                      (bvadd ((_ extract 37 4) X1) (concat #x000 Y2)))
                    #x000000))
           (a!19 ((_ extract 11 10)
                   (bvadd (concat #b0 R1) (concat #b000 ((_ extract 21 2) J2)))))
           (a!20 ((_ extract 9 8)
                   (bvadd (concat #b0 R1) (concat #b000 ((_ extract 21 2) J2)))))
           (a!21 ((_ extract 5 4)
                   (bvadd (concat #b0 R1) (concat #b000 ((_ extract 21 2) J2)))))
           (a!22 ((_ extract 7 6)
                   (bvadd (concat #b0 R1) (concat #b000 ((_ extract 21 2) J2)))))
           (a!23 ((_ extract 22 12)
                   (bvadd (concat #b0 R1) (concat #b000 ((_ extract 21 2) J2)))))
           (a!24 (or ((_ bit2bool 0) K)
                     ((_ bit2bool 1) K)
                     ((_ bit2bool 2) K)
                     (= ((_ extract 3 2) J2) (bvmul #b11 ((_ extract 1 0) R1)))))
           (a!25 (or ((_ bit2bool 0) F2)
                     ((_ bit2bool 0) C1)
                     (not (= ((_ extract 0 0) W) #b1))))
           (a!26 ((_ extract 3 2)
                   (bvadd (concat #b0 R1) (concat #b000 ((_ extract 21 2) J2)))))
           (a!27 (or ((_ bit2bool 1) G1)
                     ((_ bit2bool 2) G1)
                     (= ((_ extract 5 4) X1) (bvmul #b11 ((_ extract 1 0) Y2)))))
           (a!28 (or ((_ bit2bool 1) G1)
                     ((_ bit2bool 2) Q1)
                     (= ((_ extract 5 4) X1) (bvmul #b11 ((_ extract 1 0) Y2)))))
           (a!29 (or ((_ bit2bool 0) K)
                     ((_ bit2bool 1) K)
                     (= ((_ extract 3 2) J2) (bvmul #b11 ((_ extract 1 0) R1)))
                     (= ((_ extract 2 2) M1) #b1)))
           (a!30 (or ((_ bit2bool 2) P)
                     (= ((_ extract 9 0) M) #b0000000000)
                     (not (= ((_ extract 1 0) H2) #b00))))
           (a!31 (or (not (= M1 #x00000))
                     (= ((_ extract 3 2) J2) (bvmul #b11 ((_ extract 1 0) R1)))))
           (a!32 (or (not (= Q1 #x00000))
                     (= ((_ extract 5 4) X1) (bvmul #b11 ((_ extract 1 0) Y2))))))
     (let ((a!33 (and (or (not (= M1 #x00000)) (= ((_ extract 1 0) J2) #b00))
                      (not ((_ bit2bool 11) X2))
                      (not ((_ bit2bool 10) X2))
                      (not ((_ bit2bool 9) X2))
                      (not ((_ bit2bool 8) X2))
                      (not ((_ bit2bool 7) X2))
                      (not ((_ bit2bool 6) X2))
                      (not ((_ bit2bool 5) X2))
                      (not ((_ bit2bool 4) X2))
                      (not ((_ bit2bool 3) X2))
                      (not ((_ bit2bool 2) X2))
                      (not ((_ bit2bool 1) X2))
                      (not ((_ bit2bool 0) X2))
                      (not ((_ bit2bool 7) B3))
                      (not ((_ bit2bool 6) B3))
                      (not ((_ bit2bool 5) B3))
                      (not ((_ bit2bool 4) B3))
                      (not ((_ bit2bool 3) B3))
                      (not ((_ bit2bool 2) B3))
                      (not ((_ bit2bool 1) B3))
                      (not ((_ bit2bool 0) B3))
                      (not ((_ bit2bool 1) S3))
                      (not ((_ bit2bool 0) S3))
                      (not ((_ bit2bool 3) E3))
                      (not ((_ bit2bool 2) E3))
                      (not ((_ bit2bool 1) E3))
                      (not ((_ bit2bool 0) E3))
                      (not (= ((_ extract 17 17) G2) #b1))
                      (not (= ((_ extract 17 17) E1) #b1))
                      (not ((_ bit2bool 9) Z2))
                      (not ((_ bit2bool 8) Z2))
                      (not ((_ bit2bool 7) Z2))
                      (not ((_ bit2bool 6) Z2))
                      (not ((_ bit2bool 5) Z2))
                      (not ((_ bit2bool 4) Z2))
                      (not ((_ bit2bool 3) Z2))
                      (not ((_ bit2bool 2) Z2))
                      (not ((_ bit2bool 1) Z2))
                      (not ((_ bit2bool 0) Z2))
                      (not ((_ bit2bool 5) C3))
                      (not ((_ bit2bool 4) C3))
                      (not ((_ bit2bool 3) C3))
                      (not ((_ bit2bool 2) C3))
                      (not ((_ bit2bool 1) C3))
                      (not ((_ bit2bool 0) C3))
                      (not (= ((_ extract 17 17) U) #b1))
                      (or ((_ bit2bool 0) G2)
                          ((_ bit2bool 0) E1)
                          (not ((_ bit2bool 0) U)))
                      (or ((_ bit2bool 0) G2)
                          ((_ bit2bool 2) G2)
                          ((_ bit2bool 1) G2)
                          (not ((_ bit2bool 2) U))
                          (= ((_ extract 2 2) E1) #b1))
                      (= ((_ extract 37 14) H1)
                         (bvmul #xffffff (concat #b00 G3)))
                      (or (not ((_ bit2bool 0) F2))
                          (= ((_ extract 0 0) C1) #b1)
                          (= ((_ extract 0 0) W) #b1))
                      (= ((_ extract 13 12) T1)
                         (bvmul #b11 ((_ extract 1 0) F3)))
                      a!1
                      (= ((_ extract 37 14) H1) #x000000)
                      a!2
                      a!3
                      (= ((_ extract 11 10) M)
                         (bvmul #b11 ((_ extract 1 0) D3)))
                      (or (not (= C1 #x00000))
                          (not ((_ bit2bool 2) W))
                          (= ((_ extract 2 2) F2) #b1))
                      (or ((_ bit2bool 0) U)
                          (not ((_ bit2bool 0) G2))
                          (= ((_ extract 0 0) E1) #b1))
                      a!4
                      (= ((_ extract 9 8) L1) (bvmul #b11 ((_ extract 1 0) Q2)))
                      (not (= ((_ extract 19 19) K) #b1))
                      a!5
                      a!6
                      (or (not ((_ bit2bool 0) S)) (= T #b1))
                      (or (= ((_ extract 0 0) U) #b1)
                          ((_ bit2bool 0) G2)
                          (not ((_ bit2bool 0) E1)))
                      a!7
                      a!8
                      (or ((_ bit2bool 0) U)
                          ((_ bit2bool 1) U)
                          ((_ bit2bool 0) G2)
                          (= ((_ extract 1 1) E1) #b1)
                          (not ((_ bit2bool 1) G2)))
                      a!9
                      a!10
                      a!11
                      (= ((_ extract 7 6) P2) (bvmul #b11 ((_ extract 1 0) A3)))
                      a!12
                      a!13
                      (or ((_ bit2bool 1) U)
                          ((_ bit2bool 0) G2)
                          ((_ bit2bool 1) G2)
                          ((_ bit2bool 0) E1)
                          (not ((_ bit2bool 1) E1)))
                      a!14
                      a!15
                      a!16
                      (or (not (= P1 #x00000)) (= ((_ extract 11 0) T1) #x000))
                      a!17
                      a!18
                      (= a!19 #b00)
                      (= a!20 #b00)
                      (= a!21 #b00)
                      (= a!22 #b00)
                      (= a!23 #b00000000000)
                      (or ((_ bit2bool 1) U)
                          ((_ bit2bool 2) U)
                          (= ((_ extract 2 2) G2) #b1)
                          (not ((_ bit2bool 2) E1))
                          (not ((_ bit2bool 0) E1)))
                      a!24
                      a!25
                      (or ((_ bit2bool 1) G1)
                          ((_ bit2bool 0) G1)
                          ((_ bit2bool 2) G1)
                          (= ((_ extract 3 0) X1) #x0))
                      (or ((_ bit2bool 1) K) ((_ bit2bool 2) K) (= a!26 #b00))
                      (or (not (= Y1 #x00000))
                          (= ((_ extract 5 0) P2) #b000000))
                      a!27
                      (or (not (= M3 #x00000)) (= ((_ extract 7 0) L1) #x00))
                      (or (not (= H2 #x00000))
                          (= ((_ extract 9 0) M) #b0000000000))
                      a!28
                      (or ((_ bit2bool 1) K)
                          (= a!26 #b00)
                          (= ((_ extract 2 2) M1) #b1))
                      a!29
                      (or ((_ bit2bool 2) L3)
                          ((_ bit2bool 0) M3)
                          ((_ bit2bool 1) M3)
                          (= ((_ extract 7 0) L1) #x00))
                      a!30
                      (or ((_ bit2bool 0) P1)
                          ((_ bit2bool 1) P1)
                          ((_ bit2bool 2) R2)
                          (= ((_ extract 11 0) T1) #x000))
                      a!31
                      (or (not (= M1 #x00000)) (= a!26 #b00))
                      a!32
                      (or (not (= Q1 #x00000)) (= ((_ extract 3 0) X1) #x0))
                      (or (not (= R #x00000)) (= ((_ extract 5 0) P2) #b000000))
                      (or (not (= L3 #x00000)) (= ((_ extract 7 0) L1) #x00))
                      (or (not (= P #x00000))
                          (= ((_ extract 9 0) M) #b0000000000))
                      (or (not (= R2 #x00000)) (= ((_ extract 11 0) T1) #x000))
                      (or (not (= J1 #x00000))
                          (= ((_ extract 13 0) H1) #b00000000000000))
                      (or (= L #b00000000000000000000000000000000000000)
                          (not (= O #x00000)))
                      (or ((_ bit2bool 0) K)
                          ((_ bit2bool 1) K)
                          (= ((_ extract 1 0) J2) #b00))
                      (or ((_ bit2bool 1) G1)
                          ((_ bit2bool 0) G1)
                          (= ((_ extract 3 0) X1) #x0)
                          (= ((_ extract 2 2) Q1) #b1))
                      (or ((_ bit2bool 0) Y1)
                          (= ((_ extract 5 0) P2) #b000000)
                          (= ((_ extract 1 1) Y1) #b1)
                          (= ((_ extract 2 2) R) #b1))
                      (or ((_ bit2bool 0) M1)
                          ((_ bit2bool 1) K)
                          (= ((_ extract 1 0) J2) #b00))
                      (or ((_ bit2bool 1) Y1)
                          (not (= R #x00000))
                          (= P2 #b00000000000000000000000000000000000000))
                      (or ((_ bit2bool 0) K)
                          (= ((_ extract 1 0) J2) #b00)
                          (= ((_ extract 1 1) M1) #b1))
                      (or ((_ bit2bool 0) Y1)
                          (not (= R #x00000))
                          (= P2 #b00000000000000000000000000000000000000)))))
       (= (INV!slice!1 A
                       B
                       C
                       D
                       E
                       F
                       G
                       H
                       I
                       J
                       K
                       L
                       M
                       N
                       O
                       P
                       Q
                       R
                       S
                       T
                       U
                       V
                       W
                       X
                       Y
                       Z
                       A1
                       B1
                       C1
                       D1
                       E1
                       F1
                       G1
                       H1
                       I1
                       J1
                       K1
                       L1
                       M1
                       N1
                       O1
                       P1
                       Q1
                       R1
                       S1
                       T1
                       U1
                       V1
                       W1
                       X1
                       Y1
                       Z1
                       A2
                       B2
                       C2
                       D2
                       E2
                       F2
                       G2
                       H2
                       I2
                       J2
                       K2
                       L2
                       M2
                       N2
                       O2
                       P2
                       Q2
                       R2
                       S2
                       T2
                       U2
                       V2
                       W2
                       X2
                       Y2
                       Z2
                       A3
                       B3
                       C3
                       D3
                       E3
                       F3
                       G3
                       H3
                       I3
                       J3
                       K3
                       L3
                       M3
                       N3
                       O3
                       P3
                       Q3
                       R3
                       S3
                       T3
                       U3
                       V3
                       W3)
          a!33)))
     :weight 0))
